% Generated FlatZinc statistics:
%%%mzn-stat: paths=0
%%%mzn-stat: flatBoolVars=398
%%%mzn-stat: flatIntVars=797
%%%mzn-stat: flatBoolConstraints=199
%%%mzn-stat: flatIntConstraints=903
%%%mzn-stat: evaluatedReifiedConstraints=496
%%%mzn-stat: evaluatedHalfReifiedConstraints=1
%%%mzn-stat: method="minimize"
%%%mzn-stat: flatTime=7.7116
%%%mzn-stat-end

% Pruned 49994 learnt clauses
% Pruned 49984 learnt clauses
% Pruned 49984 learnt clauses
% Pruned 49980 learnt clauses
% Pruned 49983 learnt clauses
% Pruned 49971 learnt clauses
%%%mzn-stat: nodes=412825
%%%mzn-stat: failures=384906
%%%mzn-stat: restarts=17
%%%mzn-stat: variables=688293
%%%mzn-stat: intVars=897
%%%mzn-stat: boolVariables=687394
%%%mzn-stat: propagators=1203
%%%mzn-stat: propagations=767385608
%%%mzn-stat: peakDepth=83
%%%mzn-stat: nogoods=384906
%%%mzn-stat: backjumps=26542
%%%mzn-stat: peakMem=0.00
%%%mzn-stat: time=300.686
%%%mzn-stat: initTime=0.685
%%%mzn-stat: solveTime=300.001
%%%mzn-stat: objective=-38542
%%%mzn-stat: optTime=298.533
%%%mzn-stat: baseMem=0.00
%%%mzn-stat: trailMem=4.75
%%%mzn-stat: randomSeed=1585932404
S = [49, 2, 31, 73, 5, 6, 26, 8, 33, 18, 11, 42, 84, 14, 82, 16, 37, 15, 19, 20, 21, 32, 23, 24, 93, 68, 85, 28, 17, 67, 100, 47, 91, 34, 35, 74, 52, 38, 57, 86, 41, 89, 7, 44, 27, 46, 78, 48, 60, 50, 75, 71, 53, 25, 55, 79, 98, 58, 36, 22, 81, 62, 63, 56, 43, 66, 80, 59, 65, 64, 39, 72, 10, 70, 95, 76, 77, 12, 40, 87, 30, 29, 83, 9, 4, 51, 69, 88, 54, 90, 45, 92, 13, 94, 3, 96, 97, 61, 99, 1]
P = [100, 2, 95, 85, 5, 6, 43, 8, 84, 73, 11, 78, 93, 14, 18, 16, 29, 10, 19, 20, 21, 60, 23, 24, 54, 7, 45, 28, 82, 81, 3, 22, 9, 34, 35, 59, 17, 38, 71, 79, 41, 12, 65, 44, 91, 46, 32, 48, 1, 50, 86, 37, 53, 89, 55, 64, 39, 58, 68, 49, 98, 62, 63, 70, 69, 66, 30, 26, 87, 74, 52, 72, 4, 36, 51, 76, 77, 47, 56, 67, 61, 15, 83, 13, 27, 40, 80, 88, 42, 90, 33, 92, 25, 94, 75, 96, 97, 57, 99, 31]
cost = 38542
% Time limit exceeded!
itinerary = [1,49,60,22,32,47,78,12,42,89,54,25,93,13,84,9,33,91,45,27,85,4,73,10,18,15,82,29,17,37,52,71,39,57,98,61,81,30,67,80,87,69,65,43,7,26,68,59,36,74,70,64,56,79,40,86,51,75,95,3,31,100]
opt = false
